p cnf 13 37
-4 6 1 0
9 -2 -8 0
1 2 -5 0
-11 12 6 0
5 -11 -10 0
-12 -4 13 0
-13 -1 6 0
1 -3 -9 0
-1 12 -9 0
-9 3 -6 0
7 -1 -9 0
-3 6 1 0
-4 -11 1 0
13 12 9 0
-6 -8 -13 0
4 -2 -6 0
10 1 2 0
2 -9 -3 0
5 1 10 0
2 -1 5 0
-13 1 5 0
-6 10 -4 0
1 2 5 0
-1 5 2 0
2 -1 5 0
13 8 6 0
-3 -1 -8 0
-1 -3 -5 0
4 9 5 0
11 1 7 0
7 2 -8 0
-3 -2 8 0
-4 -2 -8 0
10 -8 -2 0
9 -1 12 0
6 1 5 0
-10 8 3 0
